CMD:
./solvers/bin/cadical --plain --no-reduce -t 1600 ./data/cnfs//bobtuint17neg/bobtuint17neg.50.cnf

c --- [ banner ] -------------------------------------------------------------
c 
c CaDiCaL SAT Solver
c Copyright (c) 2016-2024
c A. Biere, M. Fleury, N. Froleyks, K. Fazekas, F. Pollitt, T. Faller
c JKU Linz, University of Freiburg, TU Wien
c 
c Version 2.1.3 5296d3d2a9bf48c154ab2acb5e44625776d821bf
c g++ (Gentoo 12.3.1_p20230526 p2) 12.3.1 20230526 -Wall -Wextra -O3 -DNDEBUG
c Sat Aug 9 07:26:21 PDT 2025 Linux cedar2.int.cedar.computecanada.ca 5.14.0-362.24.2.el9_3.x86_64 x86_64
c 
c --- [ limit ] --------------------------------------------------------------
c 
c setting time limit to 1600 seconds real time (due to '-t 1600')
c 
c --- [ parsing input ] ------------------------------------------------------
c 
c reading DIMACS file from './data/cnfs//bobtuint17neg/bobtuint17neg.50.cnf'
c opening file to read './data/cnfs//bobtuint17neg/bobtuint17neg.50.cnf'
c found 'p cnf 111427 300857' header
c parsed 300857 clauses in 0.05 seconds process time
c 
c --- [ options ] ------------------------------------------------------------
c 
c   --compact=false                (different from default 'true')
c   --decompose=false              (different from default 'true')
c   --deduplicate=false            (different from default 'true')
c   --elim=false                   (different from default 'true')
c   --probe=false                  (different from default 'true')
c   --reduce=false                 (different from default 'true')
c   --subsume=false                (different from default 'true')
c   --ternary=false                (different from default 'true')
c   --transred=false               (different from default 'true')
c   --vivify=false                 (different from default 'true')
c 
c --- [ solving ] ------------------------------------------------------------
c 
c time measured in process time since initialization
c 
c  seconds  reductions  redundant  irredundant
c         MB    restarts       trail       variables
c          level   conflicts       glue          remaining
c 
c *  0.05 51  0 0   0    0    0  0% 0 288622 104878 94%
c {  0.05 51  0 0   0    0    0  0% 0 288622 104878 94%
c i  0.05 52 21 0   0    4    2  6% 1 288622 104767 94%
c i  0.07 52 270 0   3  221  139 21% 2 288622 104298 94%
c }  0.07 52 172 0   3  318  229 19% 2 288622 104279 94%
c 0  0.07 52 172 0   3  318  229 19% 2 288622 104279 94%
c 
c --- [ result ] -------------------------------------------------------------
c 
s UNSATISFIABLE
c 
c --- [ run-time profiling ] -------------------------------------------------
c 
c process time taken by individual solving procedures
c (percentage relative to process time for solving)
c 
c         0.05  191.78% parse
c         0.02   99.60% search
c         0.02   93.87% unstable
c         0.00    5.54% lucky
c         0.00    0.00% simplify
c   =================================
c         0.02   34.06% solve
c 
c last line shows process time for solving
c (percentage relative to total process time)
c 
c --- [ statistics ] ---------------------------------------------------------
c 
c chronological:                68        21.38 %  of conflicts
c conflicts:                   318     12904.80    per second
c decisions:                   959     38917.30    per second
c fixed:                      7061         6.34 %  of all variables
c learned:                     232        72.96 %  per conflict
c learned_lits:               1325       100.00 %  learned literals
c minimized:                     0         0.00 %  learned literals
c shrunken:                     49         3.70 %  learned literals
c minishrunken:                 19         1.43 %  learned literals
c otfs:                         24         7.55 %  of conflict
c propagations:             266598        10.82 M  per second
c restarts:                      3       106.00    interval
c strengthened:                 24         0.01 %  of all clauses
c 
c seconds are measured in process time for solving
c 
c --- [ resources ] ----------------------------------------------------------
c 
c total process time since initialization:         0.07    seconds
c total real time since initialization:            0.08    seconds
c maximum resident set size of process:           50.23    MB
c 
c --- [ shutting down ] ------------------------------------------------------
c 
c exit 20
